output ["start_time = \n",let {array [int] of string: X_INTRODUCED_3843_ = [], array [int] of string: X_INTRODUCED_3844_ = [], array [int,int] of string: X_INTRODUCED_3845_ = [(X_INTRODUCED_3841_, X_INTRODUCED_3842_) : showDzn(start_time[X_INTRODUCED_3841_,X_INTRODUCED_3842_]) | X_INTRODUCED_3841_ in index_set_1of2(start_time), X_INTRODUCED_3842_ in index_set_2of2(start_time)]} in (show2d_indexed(X_INTRODUCED_3843_,X_INTRODUCED_3844_,X_INTRODUCED_3845_)),";\n","SpeedScaling = \n",let {array [int] of string: X_INTRODUCED_3848_ = [], array [int] of string: X_INTRODUCED_3849_ = [], array [int,int] of string: X_INTRODUCED_3850_ = [(X_INTRODUCED_3846_, X_INTRODUCED_3847_) : showDzn(SpeedScaling[X_INTRODUCED_3846_,X_INTRODUCED_3847_]) | X_INTRODUCED_3846_ in index_set_1of2(SpeedScaling), X_INTRODUCED_3847_ in index_set_2of2(SpeedScaling)]} in (show2d_indexed(X_INTRODUCED_3848_,X_INTRODUCED_3849_,X_INTRODUCED_3850_)),";\n","makespan = ",showDzn(makespan),";\n","consumedEnergy = ",showDzn(consumedEnergy),";\n"];
int: SPEED = 1;
set of int: MACHINES = 1..15;
set of int: JOBS = 1..15;
array [1..225] of int: X_INTRODUCED_226_;
array [JOBS,MACHINES] of int: SpeedScaling = [|1,1,1,1,1,1,1,1,1,1,1,1,1,1,1|1,1,1,1,1,1,1,1,1,1,1,1,1,1,1|1,1,1,1,1,1,1,1,1,1,1,1,1,1,1|1,1,1,1,1,1,1,1,1,1,1,1,1,1,1|1,1,1,1,1,1,1,1,1,1,1,1,1,1,1|1,1,1,1,1,1,1,1,1,1,1,1,1,1,1|1,1,1,1,1,1,1,1,1,1,1,1,1,1,1|1,1,1,1,1,1,1,1,1,1,1,1,1,1,1|1,1,1,1,1,1,1,1,1,1,1,1,1,1,1|1,1,1,1,1,1,1,1,1,1,1,1,1,1,1|1,1,1,1,1,1,1,1,1,1,1,1,1,1,1|1,1,1,1,1,1,1,1,1,1,1,1,1,1,1|1,1,1,1,1,1,1,1,1,1,1,1,1,1,1|1,1,1,1,1,1,1,1,1,1,1,1,1,1,1|1,1,1,1,1,1,1,1,1,1,1,1,1,1,1|];
int: consumedEnergy = 18189;
array [JOBS,MACHINES,1..SPEED] of int: time = array3d(1..15,1..15,1..1,[23,1,21,7,13,8,30,15,4,20,39,9,6,12,71,96,28,60,48,12,2,27,21,11,6,13,16,8,8,15,50,22,8,8,15,5,5,18,2,17,11,31,35,30,30,12,28,10,22,10,15,1,7,92,6,30,27,33,16,23,1,1,5,4,2,3,20,5,78,29,20,31,7,67,47,33,16,47,35,27,63,25,11,20,5,5,33,39,92,49,20,2,17,68,40,17,15,6,5,1,57,26,4,13,1,6,33,27,16,8,27,81,14,1,1,2,83,20,47,4,7,30,58,10,1,51,8,34,4,30,47,33,11,33,3,9,14,54,4,54,41,92,11,5,7,45,86,31,17,8,46,53,2,6,46,48,9,8,14,20,2,46,19,38,6,86,35,10,76,31,47,1,1,35,9,18,4,98,18,45,1,16,1,55,15,1,2,20,2,5,14,17,22,25,12,24,4,8,41,4,6,7,16,1,1,16,4,29,41,22,30,12,1,14,12,23,3,6,43,7,13,71,8,4,31]);
array [1..225] of int: X_INTRODUCED_0_;
array [JOBS,MACHINES] of int: start_time = array2d(1..15,1..15,X_INTRODUCED_0_);
int: makespan = max([start_time[j,m]+time[j,m,SpeedScaling[j,m]] | m in MACHINES, j in JOBS]);
